c graph colorability of graph:
c .
c
c Generated with `cnfgen`
c (C) 2012-2019 Massimo Lauria <massimo.lauria@uniroma1.it>
c https://massimolauria.net/cnfgen
c
c COMMAND LINE: cnfgen --seed 1 -o ./kcolor/kcolor.grid8.s1.k4.cnf kcolor --grid 8 8 --savegraph ./kcolor/kcolor.grid8.s1.graph --graphformat dot 4
c
p cnf 256 896
1 2 3 4 0
-1 -2 0
-1 -3 0
-1 -4 0
-2 -3 0
-2 -4 0
-3 -4 0
5 6 7 8 0
-5 -6 0
-5 -7 0
-5 -8 0
-6 -7 0
-6 -8 0
-7 -8 0
9 10 11 12 0
-9 -10 0
-9 -11 0
-9 -12 0
-10 -11 0
-10 -12 0
-11 -12 0
13 14 15 16 0
-13 -14 0
-13 -15 0
-13 -16 0
-14 -15 0
-14 -16 0
-15 -16 0
17 18 19 20 0
-17 -18 0
-17 -19 0
-17 -20 0
-18 -19 0
-18 -20 0
-19 -20 0
21 22 23 24 0
-21 -22 0
-21 -23 0
-21 -24 0
-22 -23 0
-22 -24 0
-23 -24 0
25 26 27 28 0
-25 -26 0
-25 -27 0
-25 -28 0
-26 -27 0
-26 -28 0
-27 -28 0
29 30 31 32 0
-29 -30 0
-29 -31 0
-29 -32 0
-30 -31 0
-30 -32 0
-31 -32 0
33 34 35 36 0
-33 -34 0
-33 -35 0
-33 -36 0
-34 -35 0
-34 -36 0
-35 -36 0
37 38 39 40 0
-37 -38 0
-37 -39 0
-37 -40 0
-38 -39 0
-38 -40 0
-39 -40 0
41 42 43 44 0
-41 -42 0
-41 -43 0
-41 -44 0
-42 -43 0
-42 -44 0
-43 -44 0
45 46 47 48 0
-45 -46 0
-45 -47 0
-45 -48 0
-46 -47 0
-46 -48 0
-47 -48 0
49 50 51 52 0
-49 -50 0
-49 -51 0
-49 -52 0
-50 -51 0
-50 -52 0
-51 -52 0
53 54 55 56 0
-53 -54 0
-53 -55 0
-53 -56 0
-54 -55 0
-54 -56 0
-55 -56 0
57 58 59 60 0
-57 -58 0
-57 -59 0
-57 -60 0
-58 -59 0
-58 -60 0
-59 -60 0
61 62 63 64 0
-61 -62 0
-61 -63 0
-61 -64 0
-62 -63 0
-62 -64 0
-63 -64 0
65 66 67 68 0
-65 -66 0
-65 -67 0
-65 -68 0
-66 -67 0
-66 -68 0
-67 -68 0
69 70 71 72 0
-69 -70 0
-69 -71 0
-69 -72 0
-70 -71 0
-70 -72 0
-71 -72 0
73 74 75 76 0
-73 -74 0
-73 -75 0
-73 -76 0
-74 -75 0
-74 -76 0
-75 -76 0
77 78 79 80 0
-77 -78 0
-77 -79 0
-77 -80 0
-78 -79 0
-78 -80 0
-79 -80 0
81 82 83 84 0
-81 -82 0
-81 -83 0
-81 -84 0
-82 -83 0
-82 -84 0
-83 -84 0
85 86 87 88 0
-85 -86 0
-85 -87 0
-85 -88 0
-86 -87 0
-86 -88 0
-87 -88 0
89 90 91 92 0
-89 -90 0
-89 -91 0
-89 -92 0
-90 -91 0
-90 -92 0
-91 -92 0
93 94 95 96 0
-93 -94 0
-93 -95 0
-93 -96 0
-94 -95 0
-94 -96 0
-95 -96 0
97 98 99 100 0
-97 -98 0
-97 -99 0
-97 -100 0
-98 -99 0
-98 -100 0
-99 -100 0
101 102 103 104 0
-101 -102 0
-101 -103 0
-101 -104 0
-102 -103 0
-102 -104 0
-103 -104 0
105 106 107 108 0
-105 -106 0
-105 -107 0
-105 -108 0
-106 -107 0
-106 -108 0
-107 -108 0
109 110 111 112 0
-109 -110 0
-109 -111 0
-109 -112 0
-110 -111 0
-110 -112 0
-111 -112 0
113 114 115 116 0
-113 -114 0
-113 -115 0
-113 -116 0
-114 -115 0
-114 -116 0
-115 -116 0
117 118 119 120 0
-117 -118 0
-117 -119 0
-117 -120 0
-118 -119 0
-118 -120 0
-119 -120 0
121 122 123 124 0
-121 -122 0
-121 -123 0
-121 -124 0
-122 -123 0
-122 -124 0
-123 -124 0
125 126 127 128 0
-125 -126 0
-125 -127 0
-125 -128 0
-126 -127 0
-126 -128 0
-127 -128 0
129 130 131 132 0
-129 -130 0
-129 -131 0
-129 -132 0
-130 -131 0
-130 -132 0
-131 -132 0
133 134 135 136 0
-133 -134 0
-133 -135 0
-133 -136 0
-134 -135 0
-134 -136 0
-135 -136 0
137 138 139 140 0
-137 -138 0
-137 -139 0
-137 -140 0
-138 -139 0
-138 -140 0
-139 -140 0
141 142 143 144 0
-141 -142 0
-141 -143 0
-141 -144 0
-142 -143 0
-142 -144 0
-143 -144 0
145 146 147 148 0
-145 -146 0
-145 -147 0
-145 -148 0
-146 -147 0
-146 -148 0
-147 -148 0
149 150 151 152 0
-149 -150 0
-149 -151 0
-149 -152 0
-150 -151 0
-150 -152 0
-151 -152 0
153 154 155 156 0
-153 -154 0
-153 -155 0
-153 -156 0
-154 -155 0
-154 -156 0
-155 -156 0
157 158 159 160 0
-157 -158 0
-157 -159 0
-157 -160 0
-158 -159 0
-158 -160 0
-159 -160 0
161 162 163 164 0
-161 -162 0
-161 -163 0
-161 -164 0
-162 -163 0
-162 -164 0
-163 -164 0
165 166 167 168 0
-165 -166 0
-165 -167 0
-165 -168 0
-166 -167 0
-166 -168 0
-167 -168 0
169 170 171 172 0
-169 -170 0
-169 -171 0
-169 -172 0
-170 -171 0
-170 -172 0
-171 -172 0
173 174 175 176 0
-173 -174 0
-173 -175 0
-173 -176 0
-174 -175 0
-174 -176 0
-175 -176 0
177 178 179 180 0
-177 -178 0
-177 -179 0
-177 -180 0
-178 -179 0
-178 -180 0
-179 -180 0
181 182 183 184 0
-181 -182 0
-181 -183 0
-181 -184 0
-182 -183 0
-182 -184 0
-183 -184 0
185 186 187 188 0
-185 -186 0
-185 -187 0
-185 -188 0
-186 -187 0
-186 -188 0
-187 -188 0
189 190 191 192 0
-189 -190 0
-189 -191 0
-189 -192 0
-190 -191 0
-190 -192 0
-191 -192 0
193 194 195 196 0
-193 -194 0
-193 -195 0
-193 -196 0
-194 -195 0
-194 -196 0
-195 -196 0
197 198 199 200 0
-197 -198 0
-197 -199 0
-197 -200 0
-198 -199 0
-198 -200 0
-199 -200 0
201 202 203 204 0
-201 -202 0
-201 -203 0
-201 -204 0
-202 -203 0
-202 -204 0
-203 -204 0
205 206 207 208 0
-205 -206 0
-205 -207 0
-205 -208 0
-206 -207 0
-206 -208 0
-207 -208 0
209 210 211 212 0
-209 -210 0
-209 -211 0
-209 -212 0
-210 -211 0
-210 -212 0
-211 -212 0
213 214 215 216 0
-213 -214 0
-213 -215 0
-213 -216 0
-214 -215 0
-214 -216 0
-215 -216 0
217 218 219 220 0
-217 -218 0
-217 -219 0
-217 -220 0
-218 -219 0
-218 -220 0
-219 -220 0
221 222 223 224 0
-221 -222 0
-221 -223 0
-221 -224 0
-222 -223 0
-222 -224 0
-223 -224 0
225 226 227 228 0
-225 -226 0
-225 -227 0
-225 -228 0
-226 -227 0
-226 -228 0
-227 -228 0
229 230 231 232 0
-229 -230 0
-229 -231 0
-229 -232 0
-230 -231 0
-230 -232 0
-231 -232 0
233 234 235 236 0
-233 -234 0
-233 -235 0
-233 -236 0
-234 -235 0
-234 -236 0
-235 -236 0
237 238 239 240 0
-237 -238 0
-237 -239 0
-237 -240 0
-238 -239 0
-238 -240 0
-239 -240 0
241 242 243 244 0
-241 -242 0
-241 -243 0
-241 -244 0
-242 -243 0
-242 -244 0
-243 -244 0
245 246 247 248 0
-245 -246 0
-245 -247 0
-245 -248 0
-246 -247 0
-246 -248 0
-247 -248 0
249 250 251 252 0
-249 -250 0
-249 -251 0
-249 -252 0
-250 -251 0
-250 -252 0
-251 -252 0
253 254 255 256 0
-253 -254 0
-253 -255 0
-253 -256 0
-254 -255 0
-254 -256 0
-255 -256 0
-1 -5 0
-2 -6 0
-3 -7 0
-4 -8 0
-1 -33 0
-2 -34 0
-3 -35 0
-4 -36 0
-5 -9 0
-6 -10 0
-7 -11 0
-8 -12 0
-5 -37 0
-6 -38 0
-7 -39 0
-8 -40 0
-9 -13 0
-10 -14 0
-11 -15 0
-12 -16 0
-9 -41 0
-10 -42 0
-11 -43 0
-12 -44 0
-13 -17 0
-14 -18 0
-15 -19 0
-16 -20 0
-13 -45 0
-14 -46 0
-15 -47 0
-16 -48 0
-17 -21 0
-18 -22 0
-19 -23 0
-20 -24 0
-17 -49 0
-18 -50 0
-19 -51 0
-20 -52 0
-21 -25 0
-22 -26 0
-23 -27 0
-24 -28 0
-21 -53 0
-22 -54 0
-23 -55 0
-24 -56 0
-25 -29 0
-26 -30 0
-27 -31 0
-28 -32 0
-25 -57 0
-26 -58 0
-27 -59 0
-28 -60 0
-29 -61 0
-30 -62 0
-31 -63 0
-32 -64 0
-33 -37 0
-34 -38 0
-35 -39 0
-36 -40 0
-33 -65 0
-34 -66 0
-35 -67 0
-36 -68 0
-37 -41 0
-38 -42 0
-39 -43 0
-40 -44 0
-37 -69 0
-38 -70 0
-39 -71 0
-40 -72 0
-41 -45 0
-42 -46 0
-43 -47 0
-44 -48 0
-41 -73 0
-42 -74 0
-43 -75 0
-44 -76 0
-45 -49 0
-46 -50 0
-47 -51 0
-48 -52 0
-45 -77 0
-46 -78 0
-47 -79 0
-48 -80 0
-49 -53 0
-50 -54 0
-51 -55 0
-52 -56 0
-49 -81 0
-50 -82 0
-51 -83 0
-52 -84 0
-53 -57 0
-54 -58 0
-55 -59 0
-56 -60 0
-53 -85 0
-54 -86 0
-55 -87 0
-56 -88 0
-57 -61 0
-58 -62 0
-59 -63 0
-60 -64 0
-57 -89 0
-58 -90 0
-59 -91 0
-60 -92 0
-61 -93 0
-62 -94 0
-63 -95 0
-64 -96 0
-65 -69 0
-66 -70 0
-67 -71 0
-68 -72 0
-65 -97 0
-66 -98 0
-67 -99 0
-68 -100 0
-69 -73 0
-70 -74 0
-71 -75 0
-72 -76 0
-69 -101 0
-70 -102 0
-71 -103 0
-72 -104 0
-73 -77 0
-74 -78 0
-75 -79 0
-76 -80 0
-73 -105 0
-74 -106 0
-75 -107 0
-76 -108 0
-77 -81 0
-78 -82 0
-79 -83 0
-80 -84 0
-77 -109 0
-78 -110 0
-79 -111 0
-80 -112 0
-81 -85 0
-82 -86 0
-83 -87 0
-84 -88 0
-81 -113 0
-82 -114 0
-83 -115 0
-84 -116 0
-85 -89 0
-86 -90 0
-87 -91 0
-88 -92 0
-85 -117 0
-86 -118 0
-87 -119 0
-88 -120 0
-89 -93 0
-90 -94 0
-91 -95 0
-92 -96 0
-89 -121 0
-90 -122 0
-91 -123 0
-92 -124 0
-93 -125 0
-94 -126 0
-95 -127 0
-96 -128 0
-97 -101 0
-98 -102 0
-99 -103 0
-100 -104 0
-97 -129 0
-98 -130 0
-99 -131 0
-100 -132 0
-101 -105 0
-102 -106 0
-103 -107 0
-104 -108 0
-101 -133 0
-102 -134 0
-103 -135 0
-104 -136 0
-105 -109 0
-106 -110 0
-107 -111 0
-108 -112 0
-105 -137 0
-106 -138 0
-107 -139 0
-108 -140 0
-109 -113 0
-110 -114 0
-111 -115 0
-112 -116 0
-109 -141 0
-110 -142 0
-111 -143 0
-112 -144 0
-113 -117 0
-114 -118 0
-115 -119 0
-116 -120 0
-113 -145 0
-114 -146 0
-115 -147 0
-116 -148 0
-117 -121 0
-118 -122 0
-119 -123 0
-120 -124 0
-117 -149 0
-118 -150 0
-119 -151 0
-120 -152 0
-121 -125 0
-122 -126 0
-123 -127 0
-124 -128 0
-121 -153 0
-122 -154 0
-123 -155 0
-124 -156 0
-125 -157 0
-126 -158 0
-127 -159 0
-128 -160 0
-129 -133 0
-130 -134 0
-131 -135 0
-132 -136 0
-129 -161 0
-130 -162 0
-131 -163 0
-132 -164 0
-133 -137 0
-134 -138 0
-135 -139 0
-136 -140 0
-133 -165 0
-134 -166 0
-135 -167 0
-136 -168 0
-137 -141 0
-138 -142 0
-139 -143 0
-140 -144 0
-137 -169 0
-138 -170 0
-139 -171 0
-140 -172 0
-141 -145 0
-142 -146 0
-143 -147 0
-144 -148 0
-141 -173 0
-142 -174 0
-143 -175 0
-144 -176 0
-145 -149 0
-146 -150 0
-147 -151 0
-148 -152 0
-145 -177 0
-146 -178 0
-147 -179 0
-148 -180 0
-149 -153 0
-150 -154 0
-151 -155 0
-152 -156 0
-149 -181 0
-150 -182 0
-151 -183 0
-152 -184 0
-153 -157 0
-154 -158 0
-155 -159 0
-156 -160 0
-153 -185 0
-154 -186 0
-155 -187 0
-156 -188 0
-157 -189 0
-158 -190 0
-159 -191 0
-160 -192 0
-161 -165 0
-162 -166 0
-163 -167 0
-164 -168 0
-161 -193 0
-162 -194 0
-163 -195 0
-164 -196 0
-165 -169 0
-166 -170 0
-167 -171 0
-168 -172 0
-165 -197 0
-166 -198 0
-167 -199 0
-168 -200 0
-169 -173 0
-170 -174 0
-171 -175 0
-172 -176 0
-169 -201 0
-170 -202 0
-171 -203 0
-172 -204 0
-173 -177 0
-174 -178 0
-175 -179 0
-176 -180 0
-173 -205 0
-174 -206 0
-175 -207 0
-176 -208 0
-177 -181 0
-178 -182 0
-179 -183 0
-180 -184 0
-177 -209 0
-178 -210 0
-179 -211 0
-180 -212 0
-181 -185 0
-182 -186 0
-183 -187 0
-184 -188 0
-181 -213 0
-182 -214 0
-183 -215 0
-184 -216 0
-185 -189 0
-186 -190 0
-187 -191 0
-188 -192 0
-185 -217 0
-186 -218 0
-187 -219 0
-188 -220 0
-189 -221 0
-190 -222 0
-191 -223 0
-192 -224 0
-193 -197 0
-194 -198 0
-195 -199 0
-196 -200 0
-193 -225 0
-194 -226 0
-195 -227 0
-196 -228 0
-197 -201 0
-198 -202 0
-199 -203 0
-200 -204 0
-197 -229 0
-198 -230 0
-199 -231 0
-200 -232 0
-201 -205 0
-202 -206 0
-203 -207 0
-204 -208 0
-201 -233 0
-202 -234 0
-203 -235 0
-204 -236 0
-205 -209 0
-206 -210 0
-207 -211 0
-208 -212 0
-205 -237 0
-206 -238 0
-207 -239 0
-208 -240 0
-209 -213 0
-210 -214 0
-211 -215 0
-212 -216 0
-209 -241 0
-210 -242 0
-211 -243 0
-212 -244 0
-213 -217 0
-214 -218 0
-215 -219 0
-216 -220 0
-213 -245 0
-214 -246 0
-215 -247 0
-216 -248 0
-217 -221 0
-218 -222 0
-219 -223 0
-220 -224 0
-217 -249 0
-218 -250 0
-219 -251 0
-220 -252 0
-221 -253 0
-222 -254 0
-223 -255 0
-224 -256 0
-225 -229 0
-226 -230 0
-227 -231 0
-228 -232 0
-229 -233 0
-230 -234 0
-231 -235 0
-232 -236 0
-233 -237 0
-234 -238 0
-235 -239 0
-236 -240 0
-237 -241 0
-238 -242 0
-239 -243 0
-240 -244 0
-241 -245 0
-242 -246 0
-243 -247 0
-244 -248 0
-245 -249 0
-246 -250 0
-247 -251 0
-248 -252 0
-249 -253 0
-250 -254 0
-251 -255 0
-252 -256 0
